benchmarks/crosswords/mzn/crossword3_35.ozn
output ([(((("\n"++problem_name)++"\n")++"L:")++show(L))++"\n"]++[if problem[i,j]==0 then "*" else show(letters[fix(L[problem[i,j]])]) endif++if j==cols then "\n" else "" endif | i in 1..rows, j in 1..cols, ])++["\n"];
int: rows = 21;
int: cols = 21;
array [1..rows,1..cols] of int: problem = [|1,2,3,4,0,5,6,7,8,9,0,10,11,12,13,14,0,15,16,17,18|19,20,21,22,0,23,24,25,26,27,0,28,29,30,31,32,0,33,34,35,36|37,38,39,40,0,41,42,43,44,45,46,47,48,49,50,51,0,52,53,54,55|56,57,58,59,60,61,62,63,0,64,65,66,0,67,68,69,70,71,72,73,74|0,0,0,75,76,77,78,0,79,80,81,82,83,0,84,85,86,87,0,0,0|88,89,90,91,92,93,0,94,95,96,97,98,99,100,0,101,102,103,104,105,106|107,108,109,110,111,0,112,113,114,0,115,116,117,118,119,0,120,121,122,123,124|125,126,127,128,0,129,130,131,132,133,0,134,135,136,137,138,0,139,140,141,142|143,144,145,0,146,147,148,149,150,151,152,0,153,154,155,156,157,0,158,159,160|161,162,163,164,165,166,167,168,0,169,170,171,172,173,0,174,175,176,177,178,179|0,0,180,181,182,183,184,0,185,186,187,188,189,0,190,191,192,193,194,0,0|195,196,197,198,199,200,0,201,202,203,204,205,0,206,207,208,209,210,211,212,213|214,215,216,0,217,218,219,220,221,0,222,223,224,225,226,227,228,0,229,230,231|232,233,234,235,0,236,237,238,239,240,0,241,242,243,244,245,0,246,247,248,249|250,251,252,253,254,0,255,256,257,258,259,0,260,261,262,0,263,264,265,266,267|268,269,270,271,272,273,0,274,275,276,277,278,279,280,0,281,282,283,284,285,286|0,0,0,287,288,289,290,0,291,292,293,294,295,0,296,297,298,299,0,0,0|300,301,302,303,304,305,306,307,0,308,309,310,0,311,312,313,314,315,316,317,318|319,320,321,322,0,323,324,325,326,327,328,329,330,331,332,333,0,334,335,336,337|338,339,340,341,0,342,343,344,345,346,0,347,348,349,350,351,0,352,353,354,355|356,357,358,359,0,360,361,362,363,364,0,365,366,367,368,369,0,370,371,372,373|];
int: num_letters = 26;
array [1..num_letters] of string: letters = ["a","b","c","d","e","f","g","h","i","j","k","l","m","n","o","p","q","r","s","t","u","v","w","x","y","z"];
int: N = 373;
array [0..N] of int: L;
string: problem_name = "21.06, 21 x 21";
