benchmarks/crosswords/mzn/crossword3_35.res
REGULAR
REGULAR
REGULAR
REGULAR
REGULAR
REGULAR
REGULAR
REGULAR
REGULAR
REGULAR
REGULAR
REGULAR
REGULAR
REGULAR
REGULAR
REGULAR
REGULAR
REGULAR
REGULAR
REGULAR
REGULAR
REGULAR
REGULAR
REGULAR
REGULAR
REGULAR
REGULAR
REGULAR
REGULAR
REGULAR
REGULAR
REGULAR
REGULAR
REGULAR
REGULAR
REGULAR
REGULAR
REGULAR
REGULAR
REGULAR
REGULAR
REGULAR
REGULAR
REGULAR
REGULAR
REGULAR
REGULAR
REGULAR
REGULAR
REGULAR
REGULAR
REGULAR
REGULAR
REGULAR
REGULAR
REGULAR
REGULAR
REGULAR
REGULAR
REGULAR
REGULAR
REGULAR
REGULAR
REGULAR
REGULAR
REGULAR
REGULAR
REGULAR
REGULAR
REGULAR
REGULAR
REGULAR
REGULAR
REGULAR
REGULAR
REGULAR
REGULAR
REGULAR
REGULAR
REGULAR
REGULAR
REGULAR
REGULAR
REGULAR
REGULAR
REGULAR
REGULAR
REGULAR
REGULAR
REGULAR
REGULAR
REGULAR
REGULAR
REGULAR
REGULAR
REGULAR
REGULAR
REGULAR
REGULAR
REGULAR
REGULAR
REGULAR
REGULAR
REGULAR
REGULAR
REGULAR
REGULAR
REGULAR
REGULAR
REGULAR
REGULAR
REGULAR
REGULAR
REGULAR
REGULAR
REGULAR
REGULAR
REGULAR
REGULAR
REGULAR
REGULAR
REGULAR
REGULAR
REGULAR
REGULAR
REGULAR
REGULAR
REGULAR
REGULAR
REGULAR
REGULAR
REGULAR
REGULAR
REGULAR
REGULAR
REGULAR
REGULAR
REGULAR
REGULAR
REGULAR
REGULAR
REGULAR
REGULAR
REGULAR
REGULAR
REGULAR
L = array1d(0..373, [1, 5, 19, 12, 5, 4, 5, 19, 1, 5, 19, 11, 12, 1, 20, 1, 20, 12, 1, 11, 1, 5, 16, 12, 21, 15, 8, 7, 1, 12, 1, 25, 1, 8, 19, 9, 7, 25, 18, 5, 1, 1, 4, 14, 1, 14, 1, 11, 5, 22, 9, 22, 19, 15, 1, 12, 4, 5, 8, 3, 9, 18, 14, 5, 1, 12, 15, 15, 18, 5, 8, 9, 20, 14, 1, 19, 12, 5, 5, 19, 18, 1, 15, 19, 15, 8, 3, 5, 19, 18, 5, 20, 1, 8, 1, 11, 15, 15, 26, 1, 2, 19, 1, 11, 18, 1, 16, 4, 5, 18, 5, 13, 4, 9, 3, 11, 1, 14, 1, 14, 13, 1, 5, 2, 1, 5, 4, 21, 14, 4, 5, 18, 1, 4, 2, 15, 2, 1, 14, 12, 12, 5, 3, 12, 1, 19, 4, 5, 12, 20, 19, 5, 14, 18, 5, 13, 1, 12, 21, 13, 5, 19, 14, 15, 18, 5, 12, 9, 1, 11, 1, 4, 15, 11, 12, 5, 1, 6, 1, 18, 12, 9, 18, 5, 16, 5, 18, 4, 1, 3, 18, 1, 22, 14, 9, 4, 5, 3, 1, 18, 2, 1, 19, 9, 12, 5, 4, 5, 20, 1, 9, 20, 1, 19, 1, 18, 5, 5, 9, 14, 18, 5, 1, 8, 19, 5, 14, 1, 7, 21, 12, 6, 12, 1, 18, 1, 12, 9, 1, 13, 5, 1, 13, 13, 15, 3, 18, 1, 5, 6, 1, 12, 15, 2, 5, 11, 12, 1, 20, 19, 1, 9, 20, 12, 1, 5, 4, 9, 19, 6, 6, 9, 11, 19, 3, 9, 1, 13, 1, 18, 1, 19, 9, 2, 2, 1, 18, 20, 1, 16, 19, 19, 12, 1, 9, 4, 14, 15, 5, 1, 14, 5, 14, 9, 18, 1, 1, 19, 1, 3, 18, 19, 18, 5, 14, 14, 1, 16, 19, 1, 7, 1, 18, 3, 9, 16, 15, 3, 19, 15, 18, 3, 1, 13, 14, 13, 1, 4, 12, 1, 18, 21, 5, 12, 9, 20, 19, 5, 9, 18, 5, 1, 9, 12, 5, 4, 1, 18, 15, 3, 18, 5, 4, 9, 5, 16, 13, 1, 12, 3, 3, 5, 12, 1]);
----------

%%  runtime:       19.973 (19973.219 ms)
%%  solvetime:     0.478 (478.854 ms)
%%  solutions:     1
%%  variables:     38624
%%  propagators:   48981
%%  propagations:  710239
%%  nodes:         227
%%  failures:      56
%%  restarts:      0
%%  peak depth:    128

GECODE_TUPLESET_MEM
GECODE_TUPLESET_MEM
GECODE_TUPLESET_MEM
GECODE_TUPLESET_MEM
GECODE_TUPLESET_MEM
GECODE_TUPLESET_MEM
GECODE_TUPLESET_MEM
GECODE_TUPLESET_MEM
GECODE_TUPLESET_MEM
GECODE_TUPLESET_MEM
GECODE_TUPLESET_MEM
GECODE_TUPLESET_MEM
GECODE_TUPLESET_MEM
GECODE_TUPLESET_MEM
GECODE_TUPLESET_MEM
GECODE_TUPLESET_MEM
GECODE_TUPLESET_MEM
GECODE_TUPLESET_MEM
GECODE_TUPLESET_MEM
GECODE_TUPLESET_MEM
GECODE_TUPLESET_MEM
GECODE_TUPLESET_MEM
GECODE_TUPLESET_MEM
GECODE_TUPLESET_MEM
GECODE_TUPLESET_MEM
GECODE_TUPLESET_MEM
GECODE_TUPLESET_MEM
GECODE_TUPLESET_MEM
GECODE_TUPLESET_MEM
GECODE_TUPLESET_MEM
GECODE_TUPLESET_MEM
GECODE_TUPLESET_MEM
GECODE_TUPLESET_MEM
GECODE_TUPLESET_MEM
GECODE_TUPLESET_MEM
GECODE_TUPLESET_MEM
GECODE_TUPLESET_MEM
GECODE_TUPLESET_MEM
GECODE_TUPLESET_MEM
GECODE_TUPLESET_MEM
GECODE_TUPLESET_MEM
GECODE_TUPLESET_MEM
GECODE_TUPLESET_MEM
GECODE_TUPLESET_MEM
GECODE_TUPLESET_MEM
GECODE_TUPLESET_MEM
GECODE_TUPLESET_MEM
GECODE_TUPLESET_MEM
GECODE_TUPLESET_MEM
GECODE_TUPLESET_MEM
GECODE_TUPLESET_MEM
GECODE_TUPLESET_MEM
GECODE_TUPLESET_MEM
GECODE_TUPLESET_MEM
GECODE_TUPLESET_MEM
GECODE_TUPLESET_MEM
GECODE_TUPLESET_MEM
GECODE_TUPLESET_MEM
GECODE_TUPLESET_MEM
GECODE_TUPLESET_MEM
GECODE_TUPLESET_MEM
GECODE_TUPLESET_MEM
GECODE_TUPLESET_MEM
GECODE_TUPLESET_MEM
GECODE_TUPLESET_MEM
GECODE_TUPLESET_MEM
GECODE_TUPLESET_MEM
GECODE_TUPLESET_MEM
GECODE_TUPLESET_MEM
GECODE_TUPLESET_MEM
GECODE_TUPLESET_MEM
GECODE_TUPLESET_MEM
GECODE_TUPLESET_MEM
GECODE_TUPLESET_MEM
GECODE_TUPLESET_MEM
GECODE_TUPLESET_MEM
GECODE_TUPLESET_MEM
GECODE_TUPLESET_MEM
GECODE_TUPLESET_MEM
GECODE_TUPLESET_MEM
GECODE_TUPLESET_MEM
GECODE_TUPLESET_MEM
GECODE_TUPLESET_MEM
GECODE_TUPLESET_MEM
GECODE_TUPLESET_MEM
GECODE_TUPLESET_MEM
GECODE_TUPLESET_MEM
GECODE_TUPLESET_MEM
GECODE_TUPLESET_MEM
GECODE_TUPLESET_MEM
GECODE_TUPLESET_MEM
GECODE_TUPLESET_MEM
GECODE_TUPLESET_MEM
GECODE_TUPLESET_MEM
GECODE_TUPLESET_MEM
GECODE_TUPLESET_MEM
GECODE_TUPLESET_MEM
GECODE_TUPLESET_MEM
GECODE_TUPLESET_MEM
GECODE_TUPLESET_MEM
GECODE_TUPLESET_MEM
GECODE_TUPLESET_MEM
GECODE_TUPLESET_MEM
GECODE_TUPLESET_MEM
GECODE_TUPLESET_MEM
GECODE_TUPLESET_MEM
GECODE_TUPLESET_MEM
GECODE_TUPLESET_MEM
GECODE_TUPLESET_MEM
GECODE_TUPLESET_MEM
GECODE_TUPLESET_MEM
GECODE_TUPLESET_MEM
GECODE_TUPLESET_MEM
GECODE_TUPLESET_MEM
GECODE_TUPLESET_MEM
GECODE_TUPLESET_MEM
GECODE_TUPLESET_MEM
GECODE_TUPLESET_MEM
GECODE_TUPLESET_MEM
GECODE_TUPLESET_MEM
GECODE_TUPLESET_MEM
GECODE_TUPLESET_MEM
GECODE_TUPLESET_MEM
GECODE_TUPLESET_MEM
GECODE_TUPLESET_MEM
GECODE_TUPLESET_MEM
GECODE_TUPLESET_MEM
GECODE_TUPLESET_MEM
GECODE_TUPLESET_MEM
GECODE_TUPLESET_MEM
GECODE_TUPLESET_MEM
GECODE_TUPLESET_MEM
GECODE_TUPLESET_MEM
GECODE_TUPLESET_MEM
GECODE_TUPLESET_MEM
GECODE_TUPLESET_MEM
GECODE_TUPLESET_MEM
GECODE_TUPLESET_MEM
GECODE_TUPLESET_MEM
GECODE_TUPLESET_MEM
GECODE_TUPLESET_MEM
GECODE_TUPLESET_MEM
GECODE_TUPLESET_MEM
GECODE_TUPLESET_MEM
GECODE_TUPLESET_MEM
GECODE_TUPLESET_MEM
=====UNKNOWN=====

%%  runtime:       16:41.732 (1001732.527 ms)
%%  solvetime:     16:40.006 (1000006.965 ms)
%%  solutions:     0
%%  variables:     38624
%%  propagators:   48981
%%  propagations:  3726108422
%%  nodes:         833392
%%  failures:      416646
%%  restarts:      0
%%  peak depth:    138

GECODE_TUPLESET_SPEED
GECODE_TUPLESET_SPEED
GECODE_TUPLESET_SPEED
GECODE_TUPLESET_SPEED
GECODE_TUPLESET_SPEED
GECODE_TUPLESET_SPEED
GECODE_TUPLESET_SPEED
GECODE_TUPLESET_SPEED
GECODE_TUPLESET_SPEED
GECODE_TUPLESET_SPEED
GECODE_TUPLESET_SPEED
GECODE_TUPLESET_SPEED
GECODE_TUPLESET_SPEED
GECODE_TUPLESET_SPEED
GECODE_TUPLESET_SPEED
GECODE_TUPLESET_SPEED
GECODE_TUPLESET_SPEED
GECODE_TUPLESET_SPEED
GECODE_TUPLESET_SPEED
GECODE_TUPLESET_SPEED
GECODE_TUPLESET_SPEED
GECODE_TUPLESET_SPEED
GECODE_TUPLESET_SPEED
GECODE_TUPLESET_SPEED
GECODE_TUPLESET_SPEED
GECODE_TUPLESET_SPEED
GECODE_TUPLESET_SPEED
GECODE_TUPLESET_SPEED
GECODE_TUPLESET_SPEED
GECODE_TUPLESET_SPEED
GECODE_TUPLESET_SPEED
GECODE_TUPLESET_SPEED
GECODE_TUPLESET_SPEED
GECODE_TUPLESET_SPEED
GECODE_TUPLESET_SPEED
GECODE_TUPLESET_SPEED
GECODE_TUPLESET_SPEED
GECODE_TUPLESET_SPEED
GECODE_TUPLESET_SPEED
GECODE_TUPLESET_SPEED
GECODE_TUPLESET_SPEED
GECODE_TUPLESET_SPEED
GECODE_TUPLESET_SPEED
GECODE_TUPLESET_SPEED
GECODE_TUPLESET_SPEED
GECODE_TUPLESET_SPEED
GECODE_TUPLESET_SPEED
GECODE_TUPLESET_SPEED
GECODE_TUPLESET_SPEED
GECODE_TUPLESET_SPEED
GECODE_TUPLESET_SPEED
GECODE_TUPLESET_SPEED
GECODE_TUPLESET_SPEED
GECODE_TUPLESET_SPEED
GECODE_TUPLESET_SPEED
GECODE_TUPLESET_SPEED
GECODE_TUPLESET_SPEED
GECODE_TUPLESET_SPEED
GECODE_TUPLESET_SPEED
GECODE_TUPLESET_SPEED
GECODE_TUPLESET_SPEED
GECODE_TUPLESET_SPEED
GECODE_TUPLESET_SPEED
GECODE_TUPLESET_SPEED
GECODE_TUPLESET_SPEED
GECODE_TUPLESET_SPEED
GECODE_TUPLESET_SPEED
GECODE_TUPLESET_SPEED
GECODE_TUPLESET_SPEED
GECODE_TUPLESET_SPEED
GECODE_TUPLESET_SPEED
GECODE_TUPLESET_SPEED
GECODE_TUPLESET_SPEED
GECODE_TUPLESET_SPEED
GECODE_TUPLESET_SPEED
GECODE_TUPLESET_SPEED
GECODE_TUPLESET_SPEED
GECODE_TUPLESET_SPEED
GECODE_TUPLESET_SPEED
GECODE_TUPLESET_SPEED
GECODE_TUPLESET_SPEED
GECODE_TUPLESET_SPEED
GECODE_TUPLESET_SPEED
GECODE_TUPLESET_SPEED
GECODE_TUPLESET_SPEED
GECODE_TUPLESET_SPEED
GECODE_TUPLESET_SPEED
GECODE_TUPLESET_SPEED
GECODE_TUPLESET_SPEED
GECODE_TUPLESET_SPEED
GECODE_TUPLESET_SPEED
GECODE_TUPLESET_SPEED
GECODE_TUPLESET_SPEED
GECODE_TUPLESET_SPEED
GECODE_TUPLESET_SPEED
GECODE_TUPLESET_SPEED
GECODE_TUPLESET_SPEED
GECODE_TUPLESET_SPEED
GECODE_TUPLESET_SPEED
GECODE_TUPLESET_SPEED
GECODE_TUPLESET_SPEED
GECODE_TUPLESET_SPEED
GECODE_TUPLESET_SPEED
GECODE_TUPLESET_SPEED
GECODE_TUPLESET_SPEED
GECODE_TUPLESET_SPEED
GECODE_TUPLESET_SPEED
GECODE_TUPLESET_SPEED
GECODE_TUPLESET_SPEED
GECODE_TUPLESET_SPEED
GECODE_TUPLESET_SPEED
GECODE_TUPLESET_SPEED
GECODE_TUPLESET_SPEED
GECODE_TUPLESET_SPEED
GECODE_TUPLESET_SPEED
GECODE_TUPLESET_SPEED
GECODE_TUPLESET_SPEED
GECODE_TUPLESET_SPEED
GECODE_TUPLESET_SPEED
GECODE_TUPLESET_SPEED
GECODE_TUPLESET_SPEED
GECODE_TUPLESET_SPEED
GECODE_TUPLESET_SPEED
GECODE_TUPLESET_SPEED
GECODE_TUPLESET_SPEED
GECODE_TUPLESET_SPEED
GECODE_TUPLESET_SPEED
GECODE_TUPLESET_SPEED
GECODE_TUPLESET_SPEED
GECODE_TUPLESET_SPEED
GECODE_TUPLESET_SPEED
GECODE_TUPLESET_SPEED
GECODE_TUPLESET_SPEED
GECODE_TUPLESET_SPEED
GECODE_TUPLESET_SPEED
GECODE_TUPLESET_SPEED
GECODE_TUPLESET_SPEED
GECODE_TUPLESET_SPEED
GECODE_TUPLESET_SPEED
GECODE_TUPLESET_SPEED
GECODE_TUPLESET_SPEED
GECODE_TUPLESET_SPEED
GECODE_TUPLESET_SPEED
GECODE_TUPLESET_SPEED
GECODE_TUPLESET_SPEED
GECODE_TUPLESET_SPEED
=====UNKNOWN=====

%%  runtime:       16:41.812 (1001812.593 ms)
%%  solvetime:     16:40.003 (1000003.982 ms)
%%  solutions:     0
%%  variables:     38624
%%  propagators:   48981
%%  propagations:  3983620070
%%  nodes:         866808
%%  failures:      433352
%%  restarts:      0
%%  peak depth:    138

COMPACT_TABLE
COMPACT_TABLE
COMPACT_TABLE
COMPACT_TABLE
COMPACT_TABLE
COMPACT_TABLE
COMPACT_TABLE
COMPACT_TABLE
COMPACT_TABLE
COMPACT_TABLE
COMPACT_TABLE
COMPACT_TABLE
COMPACT_TABLE
COMPACT_TABLE
COMPACT_TABLE
COMPACT_TABLE
COMPACT_TABLE
COMPACT_TABLE
COMPACT_TABLE
COMPACT_TABLE
COMPACT_TABLE
COMPACT_TABLE
COMPACT_TABLE
COMPACT_TABLE
COMPACT_TABLE
COMPACT_TABLE
COMPACT_TABLE
COMPACT_TABLE
COMPACT_TABLE
COMPACT_TABLE
COMPACT_TABLE
COMPACT_TABLE
COMPACT_TABLE
COMPACT_TABLE
COMPACT_TABLE
COMPACT_TABLE
COMPACT_TABLE
COMPACT_TABLE
COMPACT_TABLE
COMPACT_TABLE
COMPACT_TABLE
COMPACT_TABLE
COMPACT_TABLE
COMPACT_TABLE
COMPACT_TABLE
COMPACT_TABLE
COMPACT_TABLE
COMPACT_TABLE
COMPACT_TABLE
COMPACT_TABLE
COMPACT_TABLE
COMPACT_TABLE
COMPACT_TABLE
COMPACT_TABLE
COMPACT_TABLE
COMPACT_TABLE
COMPACT_TABLE
COMPACT_TABLE
COMPACT_TABLE
COMPACT_TABLE
COMPACT_TABLE
COMPACT_TABLE
COMPACT_TABLE
COMPACT_TABLE
COMPACT_TABLE
COMPACT_TABLE
COMPACT_TABLE
COMPACT_TABLE
COMPACT_TABLE
COMPACT_TABLE
COMPACT_TABLE
COMPACT_TABLE
COMPACT_TABLE
COMPACT_TABLE
COMPACT_TABLE
COMPACT_TABLE
COMPACT_TABLE
COMPACT_TABLE
COMPACT_TABLE
COMPACT_TABLE
COMPACT_TABLE
COMPACT_TABLE
COMPACT_TABLE
COMPACT_TABLE
COMPACT_TABLE
COMPACT_TABLE
COMPACT_TABLE
COMPACT_TABLE
COMPACT_TABLE
COMPACT_TABLE
COMPACT_TABLE
COMPACT_TABLE
COMPACT_TABLE
COMPACT_TABLE
COMPACT_TABLE
COMPACT_TABLE
COMPACT_TABLE
COMPACT_TABLE
COMPACT_TABLE
COMPACT_TABLE
COMPACT_TABLE
COMPACT_TABLE
COMPACT_TABLE
COMPACT_TABLE
COMPACT_TABLE
COMPACT_TABLE
COMPACT_TABLE
COMPACT_TABLE
COMPACT_TABLE
COMPACT_TABLE
COMPACT_TABLE
COMPACT_TABLE
COMPACT_TABLE
COMPACT_TABLE
COMPACT_TABLE
COMPACT_TABLE
COMPACT_TABLE
COMPACT_TABLE
COMPACT_TABLE
COMPACT_TABLE
COMPACT_TABLE
COMPACT_TABLE
COMPACT_TABLE
COMPACT_TABLE
COMPACT_TABLE
COMPACT_TABLE
COMPACT_TABLE
COMPACT_TABLE
COMPACT_TABLE
COMPACT_TABLE
COMPACT_TABLE
COMPACT_TABLE
COMPACT_TABLE
COMPACT_TABLE
COMPACT_TABLE
COMPACT_TABLE
COMPACT_TABLE
COMPACT_TABLE
COMPACT_TABLE
COMPACT_TABLE
COMPACT_TABLE
COMPACT_TABLE
COMPACT_TABLE
COMPACT_TABLE
COMPACT_TABLE
COMPACT_TABLE
=====UNKNOWN=====

%%  runtime:       16:42.425 (1002425.939 ms)
%%  solvetime:     16:40.011 (1000011.369 ms)
%%  solutions:     0
%%  variables:     38624
%%  propagators:   48981
%%  propagations:  8074590237
%%  nodes:         1712786
%%  failures:      856341
%%  restarts:      0
%%  peak depth:    138

